50
9245

509 365
520 579
296 308
46 505
726 642
312 590
469 182
384 93
893 882
699 151
269 587
690 276
628 424
178 592
678 232
403 687
576 874
130 648
333 628
768 600
193 616
846 741
767 640
536 2
938 333
806 561
678 426
276 44
56 349
118 873
418 738
551 708
232 744
706 415
463 557
606 539
367 418
382 27
870 597
839 443
432 420
258 997
985 439
450 766
325 436
914 213
308 952
198 577
647 65
753 614
